% seed = 0

mint = 34;
% maxt = 190;

nActs = 92;
dur = [0,5,3,2,1,1,3,1,3,2,2,1,2,1,4,3,1,2,3,4,1,3,3,1,2,1,1,1,2,3,2,2,3,1,3,2,2,2,2,2,1,2,2,2,3,3,1,2,1,1,4,4,2,2,1,2,3,1,3,1,1,1,5,1,3,3,3,2,1,1,5,4,2,3,2,3,1,2,2,1,1,2,3,1,3,1,2,1,2,1,3,0];

nSkills = 15;
sreq = [| 0,0,0,0,0,0,0,0,0,0,0,0,0,0,0,
	| 0,0,0,0,0,0,0,0,0,1,0,2,1,0,0,
	| 0,0,0,0,0,0,0,0,1,0,0,0,0,0,0,
	| 1,0,0,0,0,0,0,0,0,0,1,0,0,0,0,
	| 0,0,0,0,0,0,0,0,0,0,1,0,0,0,0,
	| 0,0,0,0,0,0,1,1,1,0,2,0,0,0,0,
	| 0,0,0,0,0,1,0,0,0,0,0,2,0,0,0,
	| 0,0,0,0,0,0,0,0,1,0,0,2,1,0,0,
	| 0,0,0,0,0,0,0,1,2,0,0,0,0,0,0,
	| 0,0,0,0,0,0,1,1,0,0,1,0,0,0,0,
	| 0,1,0,0,0,0,0,0,0,1,0,1,1,0,0,
	| 0,0,0,0,0,0,0,0,3,0,0,1,1,0,0,
	| 0,0,0,0,0,0,0,1,0,0,2,2,0,0,0,
	| 0,0,0,2,0,0,0,0,0,0,0,2,0,0,0,
	| 1,0,0,0,0,0,1,0,0,0,0,1,0,0,0,
	| 0,0,0,0,0,0,0,0,1,0,1,0,0,0,0,
	| 0,0,0,0,0,0,0,0,0,1,1,2,1,0,0,
	| 0,0,0,0,0,0,0,0,1,2,0,0,0,0,0,
	| 0,0,0,0,0,0,0,0,1,1,1,1,0,0,0,
	| 0,0,0,0,0,0,0,0,0,2,0,2,0,0,0,
	| 0,0,0,0,0,0,0,1,0,0,0,0,0,0,0,
	| 0,0,0,0,0,0,0,0,0,0,2,2,0,1,0,
	| 0,0,0,0,0,0,0,0,1,0,0,1,0,0,0,
	| 0,0,0,1,0,0,0,0,1,0,0,0,0,0,0,
	| 0,0,0,0,1,0,0,0,1,0,0,0,0,0,0,
	| 0,0,0,0,0,0,0,1,0,0,0,0,0,0,0,
	| 0,0,0,0,0,0,0,0,0,0,0,1,0,0,0,
	| 0,0,0,0,0,0,0,0,0,0,2,2,0,0,0,
	| 0,0,0,0,0,0,0,0,0,0,0,2,0,0,0,
	| 0,0,0,0,0,2,0,0,0,0,1,1,0,0,0,
	| 0,0,0,0,0,0,0,0,1,1,1,2,0,0,0,
	| 0,0,0,0,0,0,1,0,1,0,1,0,0,0,0,
	| 0,0,0,0,0,0,1,1,0,0,1,2,0,0,0,
	| 0,0,0,0,0,0,0,0,2,1,0,0,0,0,0,
	| 0,0,0,0,1,0,1,1,1,0,0,1,0,0,0,
	| 0,0,0,0,0,0,0,0,0,0,0,0,2,0,0,
	| 0,0,0,1,0,0,1,0,1,1,0,1,0,0,0,
	| 0,0,0,0,0,0,0,0,0,1,0,0,0,1,0,
	| 0,0,0,0,1,0,0,0,3,0,0,1,0,0,0,
	| 0,0,0,0,0,0,0,0,0,1,0,1,0,0,0,
	| 0,0,0,0,0,0,0,0,0,0,0,1,0,0,0,
	| 0,0,0,0,0,0,0,0,0,0,0,1,0,0,0,
	| 0,0,0,0,0,0,0,0,0,0,1,0,0,0,0,
	| 0,0,1,0,0,1,1,1,0,1,0,0,0,0,0,
	| 0,0,0,0,0,0,0,0,1,0,0,3,0,0,0,
	| 0,0,0,0,0,0,1,0,2,0,1,0,0,1,0,
	| 0,0,0,0,0,0,0,1,1,0,1,0,0,0,0,
	| 0,0,0,0,0,0,1,0,0,0,1,0,0,0,0,
	| 0,0,0,0,0,0,0,0,0,1,0,3,0,0,0,
	| 0,0,0,0,0,0,0,1,1,0,0,1,1,0,0,
	| 0,0,0,0,1,0,0,1,0,0,0,2,0,0,0,
	| 0,0,0,0,0,0,0,0,1,0,0,4,0,0,0,
	| 0,1,0,0,0,0,0,0,1,1,1,0,0,1,0,
	| 0,0,0,0,0,0,0,0,0,0,0,1,0,0,0,
	| 0,0,0,0,0,0,0,0,0,1,0,1,0,0,0,
	| 0,1,0,0,0,1,1,0,1,0,0,0,0,0,0,
	| 0,0,0,0,0,0,0,0,2,0,0,3,0,0,0,
	| 0,0,0,0,0,0,0,1,0,0,0,0,0,0,0,
	| 0,1,0,0,0,1,1,1,0,0,0,1,0,0,0,
	| 0,0,0,0,0,0,0,0,2,0,0,2,0,0,0,
	| 0,0,0,0,1,0,0,1,0,1,0,0,0,1,0,
	| 0,0,0,0,0,0,0,0,2,0,0,2,0,0,0,
	| 0,0,0,0,0,1,0,0,0,0,1,1,0,0,0,
	| 0,0,1,1,0,0,0,0,1,0,1,1,0,0,0,
	| 0,0,0,0,1,0,0,0,0,0,0,2,0,0,0,
	| 0,0,0,0,0,0,0,0,0,0,0,0,0,1,0,
	| 0,0,0,0,0,0,1,1,1,0,0,2,0,0,0,
	| 0,0,0,0,1,0,0,1,0,0,0,0,0,0,0,
	| 0,0,0,0,0,0,0,0,0,1,0,2,0,1,0,
	| 0,0,0,0,0,0,1,0,0,0,1,1,0,0,0,
	| 0,0,0,1,0,0,1,0,0,1,0,1,0,0,0,
	| 0,0,0,1,0,0,0,0,0,0,0,2,0,0,0,
	| 1,0,0,0,0,0,0,1,0,0,1,1,0,1,0,
	| 0,0,0,0,0,0,1,0,0,1,0,0,0,0,0,
	| 0,0,0,0,0,0,0,0,1,0,1,0,0,2,0,
	| 0,0,0,0,0,0,1,0,0,0,1,1,1,0,0,
	| 0,0,0,0,0,0,0,0,2,0,0,0,0,0,0,
	| 0,0,0,0,0,0,0,0,1,0,0,0,0,0,0,
	| 0,0,0,0,0,1,0,1,0,1,0,1,0,0,0,
	| 0,0,0,0,0,0,1,1,0,1,1,1,0,0,0,
	| 0,0,0,0,0,0,0,0,0,0,0,3,1,0,0,
	| 0,0,0,0,0,0,0,0,0,0,1,1,0,0,0,
	| 0,0,0,0,0,0,0,0,2,0,0,1,0,1,0,
	| 0,0,0,0,0,0,0,0,2,0,1,1,0,0,1,
	| 0,0,0,0,0,0,1,0,1,0,1,2,0,0,0,
	| 0,0,0,0,0,0,0,1,0,1,0,2,1,0,0,
	| 0,0,0,0,0,0,1,0,0,0,1,1,0,0,0,
	| 0,0,0,0,1,0,0,0,1,0,0,3,0,0,0,
	| 0,0,0,0,0,0,1,1,1,0,1,1,0,0,0,
	| 0,0,0,0,0,0,0,0,0,1,2,2,0,0,0,
	| 0,0,0,0,0,0,0,1,0,0,1,0,0,0,0,
	| 0,0,0,0,0,0,0,0,0,0,0,0,0,0,0, |];

% SumOfsreq = 305;

nResources = 17;
mastery = [| false,false,false,false,false,false,true,true,true,false,false,false,false,false,true,
	| false,false,false,false,false,false,false,false,false,true,true,true,false,false,false,
	| false,false,false,false,false,false,true,true,true,false,false,true,false,false,false,
	| false,false,false,false,false,false,false,false,false,false,false,true,false,false,false,
	| false,false,false,false,false,false,false,false,false,false,true,true,false,false,false,
	| false,false,false,false,false,false,false,false,false,true,true,true,false,false,false,
	| false,false,false,false,false,false,false,false,true,false,false,false,false,false,false,
	| false,false,false,false,false,false,false,false,false,false,false,true,false,false,true,
	| false,false,false,false,false,false,true,true,true,false,false,false,false,false,false,
	| false,false,false,true,true,true,false,false,false,false,false,false,true,true,true,
	| false,false,false,false,false,false,false,false,false,false,true,true,false,false,false,
	| false,true,true,false,false,false,false,true,true,true,true,true,false,false,false,
	| true,true,true,true,true,true,false,false,false,false,false,false,false,false,false,
	| false,false,false,false,false,false,false,true,true,false,false,false,false,false,false,
	| false,false,false,false,false,false,false,false,false,true,true,true,false,false,false,
	| false,false,false,false,false,false,false,false,false,false,false,false,true,true,true,
	| false,false,false,false,false,false,true,true,true,false,false,false,false,false,false, |];

nPrecs = 166;
pred = [1,1,1,2,2,2,3,3,3,4,4,4,5,5,5,6,6,6,7,7,7,8,8,8,9,9,9,10,11,11,11,12,12,12,13,13,13,14,14,14,15,15,16,17,17,17,18,18,19,19,20,20,20,21,21,22,22,22,23,23,24,25,25,25,26,27,27,27,28,29,30,30,31,32,32,32,33,34,34,34,35,36,36,36,37,37,37,38,38,39,39,39,40,40,41,41,42,42,43,43,44,45,45,46,46,47,48,49,50,51,51,52,52,53,53,54,55,55,56,56,56,57,58,58,59,60,61,62,63,64,65,65,66,66,67,68,69,70,71,72,72,73,73,74,75,75,76,76,77,78,78,79,79,80,81,81,82,83,84,85,86,87,88,89,90,91];
succ = [2,3,4,9,5,78,19,15,8,33,11,56,37,21,6,17,13,7,42,12,32,10,35,45,42,35,21,69,51,61,31,18,14,50,26,24,16,25,60,47,84,20,51,36,29,39,58,23,61,30,73,37,23,77,22,65,28,38,29,39,42,34,27,43,40,52,44,45,66,64,55,40,73,52,69,47,85,59,68,56,49,41,83,71,59,62,88,82,48,53,46,86,57,74,84,60,49,52,91,79,68,51,53,67,77,84,56,69,72,76,62,65,54,57,81,86,70,79,66,76,71,62,82,63,91,87,70,77,67,75,67,68,74,80,76,89,72,73,74,75,79,75,78,89,83,85,85,80,90,81,82,81,80,83,87,88,87,88,86,91,89,90,90,92,92,92];

nUnrels = 2722;
unpred = [2,2,2,2,2,2,2,2,2,2,2,2,2,2,2,3,3,3,3,3,3,3,3,3,3,3,3,3,3,3,3,3,3,3,3,3,3,3,3,3,3,3,3,3,3,3,3,3,3,3,3,3,3,3,3,3,3,4,4,4,4,4,4,4,4,4,4,4,4,4,4,4,4,4,4,4,4,4,4,4,4,4,4,4,4,4,4,4,4,4,4,4,4,4,4,4,4,4,4,4,4,4,4,4,4,4,4,4,4,4,4,4,4,4,4,4,4,4,5,5,5,5,5,5,5,5,5,5,5,5,5,5,5,5,6,6,6,6,6,6,6,6,6,6,6,6,6,6,6,6,6,6,6,6,6,6,7,7,7,7,7,7,7,7,7,7,7,7,7,7,7,7,7,7,7,7,7,7,7,7,7,7,7,7,7,7,8,8,8,8,8,8,8,8,8,8,8,8,8,8,8,8,8,8,8,8,8,8,8,8,8,8,8,8,8,8,8,8,8,8,8,8,8,8,8,8,8,8,8,8,8,8,8,8,8,8,8,8,8,8,8,8,8,8,8,8,8,9,9,9,9,9,9,9,9,9,9,9,9,9,9,9,9,9,9,9,9,9,9,9,9,9,9,9,9,9,9,9,9,9,9,9,9,9,9,9,9,9,9,9,9,9,9,9,9,10,10,10,10,10,10,10,10,10,10,10,10,10,10,10,10,10,10,10,10,10,10,10,10,10,10,10,10,10,10,10,10,10,10,10,10,10,10,10,10,10,10,10,10,10,10,10,10,10,10,10,10,10,10,10,10,10,10,10,10,10,10,10,10,10,10,10,10,10,11,11,11,11,11,11,11,11,11,11,11,11,11,11,11,11,11,11,11,11,11,11,11,11,11,11,11,11,11,11,11,11,11,11,11,11,11,11,11,11,11,11,11,11,11,11,11,11,11,11,11,11,11,11,11,11,11,11,11,11,11,12,12,12,12,12,12,12,12,12,12,12,12,12,12,12,12,12,12,12,12,12,12,12,12,12,12,12,12,12,12,13,13,13,13,13,13,13,13,13,13,13,13,13,13,13,13,13,13,13,13,13,13,13,13,13,13,13,13,13,13,13,13,13,13,13,13,13,13,13,13,13,13,13,13,13,13,13,14,14,14,14,14,14,14,14,14,14,14,14,14,14,14,14,14,14,14,14,14,14,14,14,14,14,14,14,14,14,14,14,14,14,14,14,14,14,14,14,14,15,15,15,15,15,15,15,15,15,15,15,15,15,15,15,15,15,15,15,15,15,15,15,15,15,15,15,15,15,15,15,15,15,15,15,15,15,15,15,15,15,15,15,15,15,15,15,16,16,16,16,16,16,16,16,16,16,16,16,16,16,16,16,16,16,16,16,16,16,16,16,16,16,16,16,16,16,16,16,16,16,16,16,16,16,16,16,16,16,16,16,16,16,16,16,16,16,16,16,16,16,16,16,16,16,16,16,16,16,16,16,16,17,17,17,17,17,17,17,17,17,17,17,17,17,17,17,17,17,17,17,17,17,17,17,17,17,17,17,17,17,17,17,17,17,17,17,17,17,17,17,17,17,17,17,17,17,17,17,18,18,18,18,18,18,18,18,18,18,18,18,18,18,18,18,18,18,18,18,18,18,18,18,18,18,18,18,18,18,18,18,18,18,18,18,18,18,18,18,18,18,18,18,18,18,18,18,19,19,19,19,19,19,19,19,19,19,19,19,19,19,19,19,19,19,19,19,19,19,19,19,19,19,19,19,19,19,19,19,19,19,19,19,19,19,19,19,19,19,19,19,19,19,19,19,19,20,20,20,20,20,20,20,20,20,20,20,20,20,20,20,20,20,20,20,20,20,20,20,20,20,20,20,20,20,20,20,20,20,20,20,20,20,20,20,20,20,20,20,20,21,21,21,21,21,21,21,21,21,21,21,21,21,21,21,21,21,21,21,21,21,21,21,21,21,21,21,21,21,21,21,21,21,21,21,21,21,21,21,21,21,21,21,21,21,21,21,21,22,22,22,22,22,22,22,22,22,22,22,22,22,22,22,22,22,22,22,22,22,22,22,22,22,22,22,22,22,22,22,22,22,22,22,22,22,22,22,22,22,22,22,22,22,22,22,22,22,23,23,23,23,23,23,23,23,23,23,23,23,23,23,23,23,23,23,23,23,23,23,23,23,23,23,23,23,23,23,23,23,23,23,23,23,23,23,23,23,23,23,23,23,23,23,23,24,24,24,24,24,24,24,24,24,24,24,24,24,24,24,24,24,24,24,24,24,24,24,24,24,24,24,24,24,24,24,24,24,24,24,24,24,24,24,24,24,24,24,24,24,25,25,25,25,25,25,25,25,25,25,25,25,25,25,25,25,25,25,25,25,25,25,25,25,25,25,25,25,25,25,25,25,25,25,26,26,26,26,26,26,26,26,26,26,26,26,26,26,26,26,26,26,26,26,26,26,26,26,26,26,26,26,26,26,26,26,26,26,26,26,26,26,26,26,26,26,26,26,26,26,26,26,26,26,26,26,26,26,26,26,26,26,27,27,27,27,27,27,27,27,27,27,27,27,27,27,27,27,27,27,27,27,27,27,27,27,27,27,27,27,27,27,27,27,27,27,27,27,27,27,27,27,27,28,28,28,28,28,28,28,28,28,28,28,28,28,28,28,28,28,28,28,28,28,28,28,28,28,28,28,28,28,28,28,28,28,28,28,28,28,28,28,28,28,28,28,28,28,28,28,28,28,28,28,28,28,28,28,28,29,29,29,29,29,29,29,29,29,29,29,29,29,29,29,29,29,29,29,29,29,29,29,29,29,29,29,29,29,29,29,29,29,29,29,29,29,29,29,29,29,29,29,29,29,29,29,29,29,29,29,29,29,29,29,30,30,30,30,30,30,30,30,30,30,30,30,30,30,30,30,30,30,30,30,30,30,30,30,30,30,30,30,30,30,30,30,30,30,30,30,30,30,30,30,31,31,31,31,31,31,31,31,31,31,31,31,31,31,31,31,31,31,31,31,31,31,31,31,31,31,31,31,31,31,31,31,31,31,31,31,31,31,31,31,31,31,31,31,31,31,31,31,31,32,32,32,32,32,32,32,32,32,32,32,32,32,32,32,32,32,32,32,32,32,32,32,32,32,32,32,32,32,32,32,32,32,32,32,32,32,33,33,33,33,33,33,33,33,33,33,33,33,33,33,33,33,33,33,33,33,33,33,33,33,33,33,33,33,33,33,33,33,33,33,33,33,33,33,33,33,33,33,33,33,33,33,33,33,33,33,33,33,33,33,33,33,34,34,34,34,34,34,34,34,34,34,34,34,34,34,34,34,34,34,34,34,34,34,34,34,34,34,34,34,34,34,34,34,34,34,34,34,34,34,34,34,34,34,34,35,35,35,35,35,35,35,35,35,35,35,35,35,35,35,35,35,35,35,35,35,35,35,35,35,35,35,35,35,35,35,35,35,35,35,35,35,35,35,35,35,35,35,36,36,36,36,36,36,36,36,36,36,36,36,36,36,36,36,36,36,36,36,36,36,36,36,36,36,36,36,36,36,36,36,36,36,36,36,36,36,36,36,36,36,36,36,37,37,37,37,37,37,37,37,37,37,37,37,37,37,37,37,37,37,37,37,37,37,37,37,37,37,37,37,37,37,37,37,37,37,37,37,37,37,37,37,37,37,37,37,37,37,37,37,38,38,38,38,38,38,38,38,38,38,38,38,38,38,38,38,38,38,38,38,38,38,38,38,38,38,38,38,38,38,38,38,38,38,38,38,38,38,39,39,39,39,39,39,39,39,39,39,39,39,39,39,39,39,39,39,39,39,39,39,39,39,39,39,39,39,39,39,39,39,39,39,39,40,40,40,40,40,40,40,40,40,40,40,40,40,40,40,40,40,40,40,40,40,40,40,40,40,40,40,40,40,40,40,40,40,40,40,40,40,40,40,40,40,40,40,40,40,41,41,41,41,41,41,41,41,41,41,41,41,41,41,41,41,41,41,41,41,41,41,41,41,41,41,41,41,41,41,41,41,41,41,41,41,41,41,41,41,41,41,41,41,42,42,42,42,42,42,42,42,42,42,42,42,42,42,42,42,42,42,42,42,42,42,42,42,42,42,42,42,43,43,43,43,43,43,43,43,43,43,43,43,43,43,43,43,43,43,43,43,43,43,43,43,43,43,43,43,43,43,43,43,43,43,43,43,43,43,43,43,44,44,44,44,44,44,44,44,44,44,44,44,44,44,44,44,44,44,44,44,44,44,44,44,44,44,44,44,44,44,44,44,44,44,44,44,44,44,44,44,44,44,44,44,44,45,45,45,45,45,45,45,45,45,45,45,45,45,45,45,45,45,45,45,45,45,45,45,45,45,45,45,45,45,45,45,45,46,46,46,46,46,46,46,46,46,46,46,46,46,46,46,46,46,46,46,46,46,46,46,46,46,46,46,46,46,46,46,46,46,46,46,46,47,47,47,47,47,47,47,47,47,47,47,47,47,47,47,47,47,47,47,47,47,47,47,47,47,47,47,47,47,47,47,47,47,47,47,47,47,47,47,47,47,48,48,48,48,48,48,48,48,48,48,48,48,48,48,48,48,48,48,48,48,48,48,48,48,48,48,48,48,48,48,48,49,49,49,49,49,49,49,49,49,49,49,49,49,49,49,49,49,49,49,49,49,49,49,49,49,49,49,49,49,49,50,50,50,50,50,50,50,50,50,50,50,50,50,50,50,50,50,50,50,50,50,50,50,50,50,50,50,50,50,50,51,51,51,51,51,51,51,51,51,51,51,51,51,51,51,51,51,51,51,51,51,51,51,51,51,51,51,51,51,51,51,52,52,52,52,52,52,52,52,52,52,52,52,52,52,52,52,52,52,52,52,52,52,52,52,52,52,53,53,53,53,53,53,53,53,53,53,53,53,53,53,53,53,53,53,53,53,53,53,53,53,53,53,53,53,53,53,53,54,54,54,54,54,54,54,54,54,54,54,54,54,54,54,54,54,54,54,54,54,54,54,54,54,54,54,54,54,54,54,54,54,54,54,55,55,55,55,55,55,55,55,55,55,55,55,55,55,55,55,55,55,55,55,55,55,56,56,56,56,56,56,56,56,56,56,56,56,56,56,56,56,56,56,56,56,56,56,56,56,57,57,57,57,57,57,57,57,57,57,57,57,57,57,57,57,57,57,57,57,57,57,57,57,57,57,57,57,57,57,57,58,58,58,58,58,58,58,58,58,58,58,58,58,58,58,58,58,58,58,58,58,58,59,59,59,59,59,59,59,59,59,59,59,59,59,59,59,59,59,59,59,59,59,59,59,59,59,59,59,59,59,59,59,60,60,60,60,60,60,60,60,60,60,60,60,60,60,60,60,60,60,60,60,60,60,60,60,60,60,60,60,60,61,61,61,61,61,61,61,61,61,61,61,61,61,61,61,61,61,61,62,62,62,62,62,62,62,62,62,62,62,62,62,62,62,62,62,62,62,62,62,62,62,62,62,62,62,63,63,63,63,63,63,63,63,63,63,63,63,63,63,63,63,63,63,63,63,64,64,64,64,64,64,64,64,64,64,64,64,64,64,64,64,64,64,64,64,64,65,65,65,65,65,65,65,65,65,65,65,65,65,65,65,65,66,66,66,66,66,66,66,66,66,66,66,66,66,66,66,66,66,66,66,67,67,67,67,67,67,67,67,67,67,67,67,67,67,67,67,67,68,68,68,68,68,68,68,68,68,68,68,68,68,68,68,68,68,68,68,68,68,68,69,69,69,69,69,69,69,69,69,69,69,70,70,70,70,70,70,70,70,70,70,71,71,71,71,71,71,71,71,71,71,71,71,71,71,71,71,71,71,72,72,72,72,72,72,72,72,72,73,73,73,73,73,73,73,73,74,74,74,74,74,74,74,74,74,74,74,74,74,74,74,74,75,75,75,75,75,75,75,75,75,75,75,76,76,76,76,76,76,76,76,76,77,77,77,77,77,77,77,77,77,77,77,77,77,78,78,78,78,78,78,78,78,79,79,79,79,79,79,80,80,80,80,80,80,80,80,81,81,81,81,81,81,81,82,82,82,82,82,82,82,83,83,83,83,83,83,84,84,84,84,84,85,85,85,85,85,86,86,86,86,87,87,87,88,88,89,89,90];
unsucc = [3,4,8,10,11,15,19,20,30,31,33,55,61,70,73,4,5,6,7,9,11,12,13,14,16,17,18,21,22,24,25,26,27,28,31,32,33,34,36,38,41,42,43,44,47,48,50,52,54,56,58,60,63,65,66,68,71,5,6,7,8,9,10,12,13,14,15,16,17,18,19,20,21,22,23,24,25,26,27,28,29,30,32,34,35,36,37,38,39,40,41,42,43,44,45,46,47,48,49,50,52,53,54,55,57,58,59,60,63,64,65,67,68,69,72,79,84,86,8,9,10,11,15,19,20,30,31,33,35,55,61,70,73,78,8,9,10,11,15,19,20,21,22,28,30,31,33,35,37,38,48,55,61,70,73,78,8,9,10,11,13,15,16,17,19,20,21,22,24,26,28,30,31,33,35,36,37,38,40,41,48,55,61,70,73,78,9,11,12,13,14,15,16,17,18,19,20,21,22,23,24,25,26,27,28,29,30,31,32,33,34,36,37,38,39,40,41,42,43,44,46,47,48,50,52,54,55,56,58,59,60,61,63,64,65,66,67,68,70,71,73,74,78,82,84,86,89,10,11,12,13,14,15,16,17,18,19,20,23,24,25,26,27,29,30,31,32,33,34,36,37,39,40,41,43,44,45,46,47,50,51,53,55,57,58,59,60,61,62,63,64,70,73,78,84,11,12,13,14,15,16,17,18,19,20,21,22,23,24,25,26,27,28,29,30,31,32,33,34,35,36,37,38,39,40,41,42,43,44,45,46,47,48,49,50,51,52,53,54,55,56,57,58,59,60,61,62,63,64,65,66,67,68,70,71,73,74,76,77,78,82,84,86,89,12,13,14,15,16,17,18,19,20,21,22,23,24,25,26,27,28,29,30,32,33,34,35,36,37,38,39,40,41,42,43,44,45,46,47,48,49,50,52,53,54,55,56,57,58,59,60,63,64,65,66,67,68,69,71,72,74,79,84,86,89,13,15,16,17,19,20,21,22,24,26,28,30,31,32,33,35,36,37,38,40,41,42,48,49,55,61,69,70,73,78,14,15,17,18,19,20,21,22,23,25,27,28,29,30,31,32,33,34,35,36,37,38,39,41,43,44,45,46,47,48,50,53,55,56,58,59,60,61,63,64,66,70,71,73,78,82,84,15,16,17,18,19,20,21,22,23,24,26,28,29,30,31,32,33,35,36,37,38,39,40,41,42,46,48,49,50,55,58,61,63,64,69,70,72,73,75,78,82,16,17,18,19,21,22,24,25,26,27,28,30,31,32,33,34,35,36,38,40,41,42,43,44,45,47,48,49,50,51,52,54,55,56,58,60,61,63,65,66,68,69,70,71,72,74,79,17,18,19,20,21,22,23,24,25,26,27,28,29,30,31,32,33,34,35,36,37,38,39,40,41,42,43,44,45,46,47,48,49,50,52,53,54,55,56,57,58,59,60,61,63,64,65,66,67,68,69,70,71,72,73,74,75,78,79,81,82,84,86,87,89,18,19,20,21,22,23,24,25,26,27,28,30,31,32,33,34,35,37,38,40,42,43,44,45,47,48,49,50,51,52,54,55,56,58,59,61,63,65,66,68,69,70,72,73,78,79,82,19,20,21,22,24,25,26,27,28,30,31,32,33,34,35,36,37,38,40,41,42,43,44,45,47,48,49,50,51,52,54,55,56,59,60,61,65,66,68,69,70,71,72,73,74,78,79,84,20,21,22,23,24,25,26,27,28,29,31,32,33,34,35,36,37,38,39,41,42,43,44,45,46,47,48,49,50,51,52,53,54,56,58,59,60,63,64,65,66,67,68,69,71,72,76,84,86,21,22,24,25,26,27,28,30,31,32,33,34,35,36,38,40,41,42,43,44,45,47,48,49,50,51,52,54,55,56,58,60,61,63,65,66,68,69,70,71,72,74,79,84,23,24,25,26,27,29,30,31,32,33,34,35,36,37,39,40,41,42,43,44,45,46,47,49,50,51,52,53,54,55,57,58,59,60,61,62,63,64,69,70,72,73,75,78,79,81,84,86,23,24,25,26,27,29,30,31,32,33,34,35,36,37,39,40,41,42,43,44,45,46,47,49,50,51,52,53,54,55,57,58,59,60,61,62,63,64,69,70,72,73,75,77,78,79,81,84,86,24,25,26,27,28,30,31,32,33,34,35,36,37,38,40,41,42,43,44,45,47,48,49,50,51,52,54,55,56,58,59,60,61,63,65,66,68,69,70,71,72,73,74,78,79,82,84,25,26,27,28,29,30,31,32,33,34,35,36,37,38,39,40,41,43,44,45,46,47,48,50,51,53,55,56,57,58,59,60,61,62,63,64,66,70,71,73,74,77,78,82,84,26,28,29,30,31,32,33,35,36,37,38,39,40,41,42,46,47,48,49,50,55,58,60,61,63,64,69,70,72,73,75,78,82,84,27,28,29,30,31,32,33,34,35,36,37,38,39,41,42,43,44,45,46,47,48,49,50,51,52,53,54,55,56,58,59,60,61,63,64,65,66,67,68,69,70,71,72,73,75,76,78,79,80,81,82,83,84,85,86,87,88,91,28,29,30,31,32,33,34,35,36,37,38,39,40,41,42,43,46,47,48,49,50,55,56,58,59,60,61,63,64,66,69,70,71,72,73,74,75,78,79,82,84,29,30,31,32,33,34,35,36,37,38,39,40,41,42,43,44,45,46,47,48,49,50,51,52,53,54,55,56,57,58,59,60,61,62,63,64,65,67,68,69,70,71,72,73,75,76,77,78,79,81,82,84,85,86,87,91,30,31,32,33,34,35,36,37,38,39,40,41,42,43,44,45,46,47,48,49,50,51,52,53,54,55,56,57,58,59,60,61,62,63,65,66,67,68,69,70,71,72,73,74,76,77,78,79,80,81,82,84,86,87,89,31,32,33,34,35,36,37,38,39,41,42,43,44,45,46,47,48,49,50,51,52,53,54,56,58,59,60,61,63,64,65,66,67,68,69,71,72,76,84,86,32,33,34,35,36,37,38,39,40,41,42,43,44,45,46,47,48,49,50,51,52,53,54,55,56,57,58,59,60,61,62,63,64,65,66,67,68,69,70,71,72,74,76,77,79,80,84,86,89,33,34,35,36,37,38,39,40,41,42,43,44,45,46,48,49,50,51,53,55,56,57,58,59,60,61,62,63,64,66,70,71,73,74,77,78,82,34,35,36,37,38,39,40,41,42,43,44,45,46,47,48,49,50,51,52,53,54,55,56,57,58,59,60,61,62,63,64,65,66,67,68,69,70,71,72,73,74,75,76,77,78,79,80,81,82,83,84,86,87,88,89,90,35,36,37,38,39,40,41,42,43,44,45,46,47,48,49,50,51,52,53,54,55,57,58,60,61,62,63,64,65,67,69,70,72,73,75,77,78,79,81,82,84,86,87,36,37,38,39,40,41,42,43,44,45,46,47,48,50,51,52,53,54,55,56,57,58,59,60,61,62,63,64,65,66,67,68,70,71,73,74,76,77,78,82,84,86,89,37,38,39,40,42,43,44,45,46,47,48,49,50,51,52,53,54,55,56,57,58,59,61,62,63,64,65,66,67,68,69,70,72,73,75,76,77,78,79,80,81,82,85,91,38,39,40,41,42,43,44,45,46,47,48,49,50,51,52,53,54,55,56,57,58,60,61,63,64,65,66,67,68,69,70,71,72,73,74,75,76,78,79,80,81,82,83,84,85,86,87,89,39,40,41,42,43,44,45,46,47,49,50,51,52,53,54,55,57,58,59,60,61,62,63,64,65,67,68,69,70,72,73,75,77,78,79,81,84,86,40,41,42,43,44,45,47,48,49,50,51,52,54,55,56,58,59,60,61,63,64,65,66,68,69,70,71,72,73,74,75,78,79,82,84,41,42,43,44,45,46,47,48,49,50,51,52,53,54,55,56,58,59,60,61,63,64,65,66,67,68,69,70,71,72,73,75,76,78,79,80,81,82,83,84,85,86,87,88,91,42,43,44,45,46,47,48,49,50,51,52,53,54,55,56,57,58,59,61,62,63,64,65,66,67,68,69,70,71,72,73,74,75,76,77,78,79,80,81,82,83,85,88,91,43,44,45,46,47,48,50,51,53,55,56,57,58,59,60,61,62,63,64,66,70,71,73,74,77,78,82,84,44,45,46,47,48,49,50,51,52,53,54,55,56,57,58,59,60,61,62,63,64,65,66,67,68,69,70,71,72,73,74,75,76,77,78,82,84,85,86,89,45,46,47,48,49,50,51,52,53,54,55,56,57,58,59,60,61,62,63,64,65,66,67,69,70,71,72,73,74,75,76,77,78,79,80,81,82,83,84,85,86,87,88,90,91,46,47,48,49,50,52,54,55,56,58,59,60,61,63,64,65,66,67,68,69,70,71,72,73,74,75,78,79,82,84,86,89,47,48,49,50,51,52,53,54,55,56,57,58,59,60,61,62,63,64,65,66,68,69,70,71,72,73,74,75,78,79,81,82,84,86,87,89,48,49,50,51,52,53,54,55,56,57,58,59,60,61,62,63,64,65,66,67,68,69,70,71,72,73,74,75,76,77,78,79,80,81,82,83,85,87,88,90,91,49,50,51,52,53,54,55,57,58,59,60,61,62,63,64,65,67,68,69,70,72,73,75,77,78,79,81,82,84,86,87,50,51,52,53,54,55,56,57,58,59,60,61,62,63,64,65,66,67,68,70,71,73,74,76,77,78,82,84,86,89,51,52,53,54,55,56,57,58,59,60,61,62,63,64,65,66,67,68,69,70,71,73,74,76,77,78,82,84,86,89,52,53,54,55,56,57,58,59,60,61,63,64,65,66,67,68,69,70,71,72,73,74,75,78,79,81,82,84,86,87,89,53,55,56,57,58,59,60,61,62,63,64,66,69,70,71,72,73,74,75,77,78,79,81,82,84,87,54,55,56,58,59,60,61,63,64,65,66,67,68,69,70,71,72,73,74,75,76,78,79,80,82,83,84,85,86,89,91,55,56,57,58,59,60,61,62,63,64,65,66,67,68,69,70,71,72,73,74,75,76,77,78,79,80,81,82,83,84,85,87,88,90,91,56,57,58,59,60,61,62,63,64,65,66,67,68,69,71,72,74,76,77,84,86,89,57,58,59,60,61,62,63,64,65,67,68,69,70,72,73,75,77,78,79,81,82,84,86,87,58,59,60,61,63,64,65,66,67,68,69,70,71,72,73,74,75,76,78,79,80,81,82,83,84,85,86,87,88,89,91,59,60,61,62,64,65,66,68,69,70,71,72,73,74,75,77,78,79,81,84,86,89,60,61,62,63,64,65,66,67,68,69,70,71,72,73,74,75,76,77,78,79,80,81,82,83,84,85,86,87,88,89,90,61,62,63,64,65,66,67,68,69,70,71,72,73,74,75,76,77,78,79,80,81,82,83,84,85,86,88,89,91,62,63,64,65,66,67,68,69,71,72,74,76,77,79,80,84,86,89,63,64,65,66,67,68,69,70,71,72,73,74,75,76,78,79,80,81,82,83,84,85,86,87,88,89,91,64,65,66,68,69,70,71,72,73,74,75,77,78,79,81,82,84,86,87,89,65,66,67,68,69,70,71,72,73,74,76,77,78,79,80,81,82,84,86,87,89,66,69,70,71,72,73,74,75,77,78,79,81,82,84,86,87,67,68,69,70,71,72,73,75,76,77,78,79,81,82,84,85,86,87,91,68,69,70,71,72,73,74,75,77,78,79,81,82,84,86,87,89,69,70,71,72,73,74,75,76,77,78,79,80,81,82,83,84,85,86,87,88,90,91,70,71,73,74,76,77,78,82,84,86,89,71,72,74,76,77,79,80,84,86,89,72,73,75,76,77,78,79,80,81,82,83,84,85,86,87,88,90,91,73,74,76,77,78,82,84,86,89,74,76,77,79,80,84,86,89,75,76,77,78,79,80,81,82,83,84,85,86,87,88,90,91,76,77,78,79,80,81,82,84,86,87,89,77,78,79,81,82,84,86,87,89,78,79,80,81,82,83,84,85,86,87,88,89,91,79,80,83,84,85,86,89,91,82,84,85,86,89,91,81,82,84,85,86,87,89,91,82,83,84,85,86,89,91,83,84,85,86,88,89,91,84,85,86,87,89,91,85,87,88,90,91,86,87,88,89,90,87,88,90,91,88,89,91,89,91,90,91,91];

USEFUL_RES = [{},
	{2,3,4,5,6,8,10,11,12,15,16},
	{1,3,7,9,12,14,17},
	{2,5,6,11,12,13,15},
	{2,5,6,11,12,15},
	{1,2,3,5,6,7,9,11,12,14,15,17},
	{2,3,4,5,6,8,10,11,12,13,15},
	{1,2,3,4,5,6,7,8,9,10,11,12,14,15,16,17},
	{1,3,7,9,12,14,17},
	{1,2,3,5,6,9,11,12,14,15,17},
	{2,3,4,5,6,8,10,11,12,13,15,16},
	{1,2,3,4,5,6,7,8,9,10,11,12,14,15,16,17},
	{1,2,3,4,5,6,8,9,11,12,14,15,17},
	{2,3,4,5,6,8,10,11,12,13,15},
	{1,2,3,4,5,6,8,9,11,12,13,15,17},
	{1,2,3,5,6,7,9,11,12,14,15,17},
	{2,3,4,5,6,8,10,11,12,15,16},
	{1,2,3,6,7,9,12,14,15,17},
	{1,2,3,4,5,6,7,8,9,11,12,14,15,17},
	{2,3,4,5,6,8,11,12,15},
	{1,3,9,12,14,17},
	{2,3,4,5,6,8,10,11,12,15,16},
	{1,2,3,4,5,6,7,8,9,11,12,14,15,17},
	{1,3,7,9,10,12,13,14,17},
	{1,3,7,9,10,12,13,14,17},
	{1,3,9,12,14,17},
	{2,3,4,5,6,8,11,12,15},
	{2,3,4,5,6,8,11,12,15},
	{2,3,4,5,6,8,11,12,15},
	{2,3,4,5,6,8,10,11,12,13,15},
	{1,2,3,4,5,6,7,8,9,11,12,14,15,17},
	{1,2,3,5,6,7,9,11,12,14,15,17},
	{1,2,3,4,5,6,8,9,11,12,14,15,17},
	{1,2,3,6,7,9,12,14,15,17},
	{1,2,3,4,5,6,7,8,9,10,11,12,13,14,15,17},
	{10,16},
	{1,2,3,4,5,6,7,8,9,10,11,12,13,14,15,17},
	{2,6,10,12,15,16},
	{1,2,3,4,5,6,7,8,9,10,11,12,13,14,15,17},
	{2,3,4,5,6,8,11,12,15},
	{2,3,4,5,6,8,11,12,15},
	{2,3,4,5,6,8,11,12,15},
	{2,5,6,11,12,15},
	{1,2,3,6,9,10,12,13,14,15,17},
	{1,2,3,4,5,6,7,8,9,11,12,14,15,17},
	{1,2,3,5,6,7,9,10,11,12,14,15,16,17},
	{1,2,3,5,6,7,9,11,12,14,15,17},
	{1,2,3,5,6,9,11,12,15,17},
	{2,3,4,5,6,8,11,12,15},
	{1,2,3,4,5,6,7,8,9,10,11,12,14,15,16,17},
	{1,2,3,4,5,6,8,9,10,11,12,13,14,15,17},
	{1,2,3,4,5,6,7,8,9,11,12,14,15,17},
	{1,2,3,5,6,7,9,10,11,12,13,14,15,16,17},
	{2,3,4,5,6,8,11,12,15},
	{2,3,4,5,6,8,11,12,15},
	{1,3,7,9,10,12,13,14,17},
	{1,2,3,4,5,6,7,8,9,11,12,14,15,17},
	{1,3,9,12,14,17},
	{1,2,3,4,5,6,8,9,10,11,12,13,14,15,17},
	{1,2,3,4,5,6,7,8,9,11,12,14,15,17},
	{1,2,3,6,9,10,12,13,14,15,16,17},
	{1,2,3,4,5,6,7,8,9,11,12,14,15,17},
	{2,3,4,5,6,8,10,11,12,13,15},
	{1,2,3,4,5,6,7,8,9,10,11,12,13,14,15,17},
	{2,3,4,5,6,8,10,11,12,13,15},
	{10,16},
	{1,2,3,4,5,6,7,8,9,11,12,14,15,17},
	{1,3,9,10,12,13,14,17},
	{2,3,4,5,6,8,10,11,12,15,16},
	{1,2,3,4,5,6,8,9,11,12,15,17},
	{1,2,3,4,5,6,8,9,10,11,12,13,15,17},
	{2,3,4,5,6,8,10,11,12,13,15},
	{1,2,3,4,5,6,8,9,10,11,12,13,14,15,16,17},
	{1,2,3,6,9,12,15,17},
	{1,2,3,5,6,7,9,10,11,12,14,15,16,17},
	{1,2,3,4,5,6,8,9,10,11,12,15,16,17},
	{1,3,7,9,12,14,17},
	{1,3,7,9,12,14,17},
	{1,2,3,4,5,6,8,9,10,11,12,13,14,15,17},
	{1,2,3,4,5,6,8,9,11,12,14,15,17},
	{2,3,4,5,6,8,10,11,12,15,16},
	{2,3,4,5,6,8,11,12,15},
	{1,2,3,4,5,6,7,8,9,10,11,12,14,15,16,17},
	{1,2,3,4,5,6,7,8,9,10,11,12,14,15,16,17},
	{1,2,3,4,5,6,7,8,9,11,12,14,15,17},
	{1,2,3,4,5,6,8,9,10,11,12,14,15,16,17},
	{1,2,3,4,5,6,8,9,11,12,15,17},
	{1,2,3,4,5,6,7,8,9,10,11,12,13,14,15,17},
	{1,2,3,4,5,6,7,8,9,11,12,14,15,17},
	{2,3,4,5,6,8,11,12,15},
	{1,2,3,5,6,9,11,12,14,15,17},
	{}];

POTENTIAL_ACT = [{3,6,8,9,10,12,13,15,16,18,19,21,23,24,25,26,31,32,33,34,35,37,39,44,45,46,47,48,50,51,52,53,56,57,58,59,60,61,62,64,67,68,70,71,73,74,75,76,77,78,79,80,83,84,85,86,87,88,89,91},
	{2,4,5,6,7,8,10,11,12,13,14,15,16,17,18,19,20,22,23,27,28,29,30,31,32,33,34,35,37,38,39,40,41,42,43,44,45,46,47,48,49,50,51,52,53,54,55,57,59,60,61,62,63,64,65,67,69,70,71,72,73,74,75,76,79,80,81,82,83,84,85,86,87,88,89,90,91},
	{2,3,6,7,8,9,10,11,12,13,14,15,16,17,18,19,20,21,22,23,24,25,26,27,28,29,30,31,32,33,34,35,37,39,40,41,42,44,45,46,47,48,49,50,51,52,53,54,55,56,57,58,59,60,61,62,63,64,65,67,68,69,70,71,72,73,74,75,76,77,78,79,80,81,82,83,84,85,86,87,88,89,90,91},
	{2,7,8,11,12,13,14,15,17,19,20,22,23,27,28,29,30,31,33,35,37,39,40,41,42,45,49,50,51,52,54,55,57,59,60,62,63,64,65,67,69,70,71,72,73,76,79,80,81,82,83,84,85,86,87,88,89,90},
	{2,4,5,6,7,8,10,11,12,13,14,15,16,17,19,20,22,23,27,28,29,30,31,32,33,35,37,39,40,41,42,43,45,46,47,48,49,50,51,52,53,54,55,57,59,60,62,63,64,65,67,69,70,71,72,73,75,76,79,80,81,82,83,84,85,86,87,88,89,90,91},
	{2,4,5,6,7,8,10,11,12,13,14,15,16,17,18,19,20,22,23,27,28,29,30,31,32,33,34,35,37,38,39,40,41,42,43,44,45,46,47,48,49,50,51,52,53,54,55,57,59,60,61,62,63,64,65,67,69,70,71,72,73,74,75,76,79,80,81,82,83,84,85,86,87,88,89,90,91},
	{3,6,8,9,12,16,18,19,23,24,25,31,32,34,35,37,39,45,46,47,50,52,53,56,57,60,62,64,67,75,77,78,83,84,85,88,89},
	{2,7,8,11,12,13,14,15,17,19,20,22,23,27,28,29,30,31,33,35,37,39,40,41,42,45,49,50,51,52,54,55,57,59,60,62,63,64,65,67,69,70,71,72,73,76,79,80,81,82,83,84,85,86,87,88,89,90},
	{3,6,8,9,10,12,13,15,16,18,19,21,23,24,25,26,31,32,33,34,35,37,39,44,45,46,47,48,50,51,52,53,56,57,58,59,60,61,62,64,67,68,70,71,73,74,75,76,77,78,79,80,83,84,85,86,87,88,89,91},
	{2,7,8,11,12,14,17,22,24,25,30,35,36,37,38,39,44,46,50,51,53,56,59,61,63,64,65,66,68,69,71,72,73,75,76,79,81,83,84,86,88},
	{2,4,5,6,7,8,10,11,12,13,14,15,16,17,19,20,22,23,27,28,29,30,31,32,33,35,37,39,40,41,42,43,45,46,47,48,49,50,51,52,53,54,55,57,59,60,62,63,64,65,67,69,70,71,72,73,75,76,79,80,81,82,83,84,85,86,87,88,89,90,91},
	{2,3,4,5,6,7,8,9,10,11,12,13,14,15,16,17,18,19,20,21,22,23,24,25,26,27,28,29,30,31,32,33,34,35,37,38,39,40,41,42,43,44,45,46,47,48,49,50,51,52,53,54,55,56,57,58,59,60,61,62,63,64,65,67,68,69,70,71,72,73,74,75,76,77,78,79,80,81,82,83,84,85,86,87,88,89,90,91},
	{4,7,11,14,15,24,25,30,35,37,39,44,51,53,56,59,61,63,64,65,68,71,72,73,79,88},
	{3,6,8,9,10,12,13,16,18,19,21,23,24,25,26,31,32,33,34,35,37,39,44,45,46,47,50,51,52,53,56,57,58,59,60,61,62,64,67,68,73,75,77,78,79,80,83,84,85,86,88,89,91},
	{2,4,5,6,7,8,10,11,12,13,14,15,16,17,18,19,20,22,23,27,28,29,30,31,32,33,34,35,37,38,39,40,41,42,43,44,45,46,47,48,49,50,51,52,53,54,55,57,59,60,61,62,63,64,65,67,69,70,71,72,73,74,75,76,79,80,81,82,83,84,85,86,87,88,89,90,91},
	{2,8,11,12,17,22,36,38,46,50,53,61,66,69,73,75,76,81,83,84,86},
	{3,6,8,9,10,12,13,15,16,18,19,21,23,24,25,26,31,32,33,34,35,37,39,44,45,46,47,48,50,51,52,53,56,57,58,59,60,61,62,64,67,68,70,71,73,74,75,76,77,78,79,80,83,84,85,86,87,88,89,91}];
